p cnf 269 349
-1 218 -222 -229 -234 -235 -238 -241 -244 -256 -257 -258 -259 -260 -261 -262 -265 -269 0 
-2 -3 5 6 30 76 93 127 219 -222 -229 -234 -235 -238 -241 -244 -256 -257 -258 -259 -260 -261 -262 -265 -269 0 
-4 27 -5 3 6 30 76 93 127 219 -222 -229 -234 -235 -238 -241 -244 -256 -257 -258 -259 -260 -261 -262 -265 -269 0 
-4 27 -6 3 5 30 76 93 127 219 -222 -229 -234 -235 -238 -241 -244 -256 -257 -258 -259 -260 -261 -262 -265 -269 0 
-3 5 6 30 76 93 127 218 -222 -229 -234 -235 -238 -241 -244 -256 -257 -258 -259 -260 -261 -262 -265 -269 0 
-5 3 6 30 76 93 127 218 -222 -229 -234 -235 -238 -241 -244 -256 -257 -258 -259 -260 -261 -262 -265 -269 0 
-6 3 5 30 76 93 127 218 -222 -229 -234 -235 -238 -241 -244 -256 -257 -258 -259 -260 -261 -262 -265 -269 0 
-4 27 -3 5 6 30 76 93 127 219 -222 -229 -234 -235 -238 -241 -244 -256 -257 -258 -259 -260 -261 -262 -265 -269 0 
-7 219 -222 -229 -234 -235 -238 -241 -244 -256 -257 -258 -259 -260 -261 -262 -265 -269 0 
-8 10 21 38 39 51 61 68 88 100 109 111 193 210 213 -9 149 220 0 
-10 8 21 38 39 51 61 68 88 100 109 111 193 210 213 -11 40 46 54 67 75 79 83 91 118 129 137 143 144 156 190 208 216 -12 43 47 64 87 105 141 151 152 158 182 -13 23 53 62 78 81 96 112 115 130 134 150 153 154 155 184 206 212 -14 101 162 218 -222 -229 -234 -235 -238 -241 -244 -256 -257 -258 -259 -260 -261 -262 -265 -269 0 
-15 197 -16 220 0 
-17 221 0 
-18 -19 95 168 176 189 -20 164 220 0 
-21 8 10 38 39 51 61 68 88 100 109 111 193 210 213 218 -222 -229 -234 -235 -238 -241 -244 -256 -257 -258 -259 -260 -261 -262 -265 -269 0 
-22 218 -222 -229 -234 -235 -238 -241 -244 -256 -257 -258 -259 -260 -261 -262 -265 -269 0 
-23 13 53 62 78 81 96 112 115 130 134 150 153 154 155 184 206 212 218 -222 -229 -234 -235 -238 -241 -244 -256 -257 -258 -259 -260 -261 -262 -265 -269 0 
-24 222 -229 -234 -235 -238 -241 -244 -256 -257 -258 -259 -260 -261 -262 -265 -269 0 
-25 94 99 110 142 223 -222 -229 -234 -235 -238 -241 -244 -256 -257 -258 -259 -260 -261 -262 -265 -269 0 
-26 223 -222 -229 -234 -235 -238 -241 -244 -256 -257 -258 -259 -260 -261 -262 -265 -269 0 
-24 -27 4 219 -222 -229 -234 -235 -238 -241 -244 -256 -257 -258 -259 -260 -261 -262 -265 -269 0 
-27 4 218 -222 -229 -234 -235 -238 -241 -244 -256 -257 -258 -259 -260 -261 -262 -265 -269 0 
-3 5 6 30 76 93 127 219 -222 -229 -234 -235 -238 -241 -244 -256 -257 -258 -259 -260 -261 -262 -265 -269 0 
-6 3 5 30 76 93 127 219 -222 -229 -234 -235 -238 -241 -244 -256 -257 -258 -259 -260 -261 -262 -265 -269 0 
-7 -5 3 6 30 76 93 127 219 -222 -229 -234 -235 -238 -241 -244 -256 -257 -258 -259 -260 -261 -262 -265 -269 0 
-4 27 219 -222 -229 -234 -235 -238 -241 -244 -256 -257 -258 -259 -260 -261 -262 -265 -269 0 
-28 -1 218 -222 -229 -234 -235 -238 -241 -244 -256 -257 -258 -259 -260 -261 -262 -265 -269 0 
-27 4 -1 218 -222 -229 -234 -235 -238 -241 -244 -256 -257 -258 -259 -260 -261 -262 -265 -269 0 
-29 218 -222 -229 -234 -235 -238 -241 -244 -256 -257 -258 -259 -260 -261 -262 -265 -269 0 
-30 3 5 6 76 93 127 218 -222 -229 -234 -235 -238 -241 -244 -256 -257 -258 -259 -260 -261 -262 -265 -269 0 
-7 -24 -31 167 218 -222 -229 -234 -235 -238 -241 -244 -256 -257 -258 -259 -260 -261 -262 -265 -269 0 
-1 -31 167 218 -222 -229 -234 -235 -238 -241 -244 -256 -257 -258 -259 -260 -261 -262 -265 -269 0 
-32 219 -222 -229 -234 -235 -238 -241 -244 -256 -257 -258 -259 -260 -261 -262 -265 -269 0 
-24 -31 167 219 -222 -229 -234 -235 -238 -241 -244 -256 -257 -258 -259 -260 -261 -262 -265 -269 0 
-33 218 -222 -229 -234 -235 -238 -241 -244 -256 -257 -258 -259 -260 -261 -262 -265 -269 0 
-34 -35 102 222 -229 -234 -235 -238 -241 -244 -256 -257 -258 -259 -260 -261 -262 -265 -269 0 
-36 86 89 135 177 218 -222 -229 -234 -235 -238 -241 -244 -256 -257 -258 -259 -260 -261 -262 -265 -269 0 
-25 94 99 110 142 221 0 
-35 102 220 0 
-37 220 0 
-38 8 10 21 39 51 61 68 88 100 109 111 193 210 213 220 0 
-39 8 10 21 38 51 61 68 88 100 109 111 193 210 213 220 0 
-40 11 46 54 67 75 79 83 91 118 129 137 143 144 156 190 208 216 220 0 
-41 220 0 
-42 45 48 74 108 148 179 185 217 220 0 
-43 12 47 64 87 105 141 151 152 158 182 220 0 
-44 220 0 
-45 42 48 74 108 148 179 185 217 220 0 
-21 8 10 38 39 51 61 68 88 100 109 111 193 210 213 224 -222 -229 -234 -235 -238 -241 -244 -256 -257 -258 -259 -260 -261 -262 -265 -269 0 
-46 11 40 54 67 75 79 83 91 118 129 137 143 144 156 190 208 216 220 0 
-47 12 43 64 87 105 141 151 152 158 182 220 0 
-48 42 45 74 108 148 179 185 217 220 0 
-49 56 220 0 
-4 27 -44 -50 220 0 
-51 8 10 21 38 39 61 68 88 100 109 111 193 210 213 220 0 
-52 225 -222 -229 -234 -235 -238 -241 -244 -256 -257 -258 -259 -260 -261 -262 -265 -269 0 
-53 13 23 62 78 81 96 112 115 130 134 150 153 154 155 184 206 212 -54 11 40 46 67 75 79 83 91 118 129 137 143 144 156 190 208 216 226 0 
-20 164 -55 106 175 186 -18 220 0 
-56 49 -18 -55 106 175 186 -35 102 220 0 
-18 -4 27 -44 -20 164 220 0 
-7 -57 -58 220 0 
-59 227 -222 -229 -234 -235 -238 -241 -244 -256 -257 -258 -259 -260 -261 -262 -265 -269 0 
-60 220 0 
-61 8 10 21 38 39 51 68 88 100 109 111 193 210 213 -62 13 23 53 78 81 96 112 115 130 134 150 153 154 155 184 206 212 -63 -64 12 43 47 87 105 141 151 152 158 182 228 -222 -229 -234 -235 -238 -241 -244 -256 -257 -258 -259 -260 -261 -262 -265 -269 0 
-65 139 -37 221 0 
-66 225 -222 -229 -234 -235 -238 -241 -244 -256 -257 -258 -259 -260 -261 -262 -265 -269 0 
-7 -60 -4 27 220 0 
-67 11 40 46 54 75 79 83 91 118 129 137 143 144 156 190 208 216 229 -222 -234 -235 -238 -241 -244 -256 -257 -258 -259 -260 -261 -262 -265 -269 0 
-68 8 10 21 38 39 51 61 88 100 109 111 193 210 213 220 0 
-69 220 0 
-9 149 220 0 
-70 -71 230 -222 -229 -234 -235 -238 -241 -244 -256 -257 -258 -259 -260 -261 -262 -265 -269 0 
-58 -65 139 220 0 
-72 -73 84 97 114 183 191 225 -222 -229 -234 -235 -238 -241 -244 -256 -257 -258 -259 -260 -261 -262 -265 -269 0 
-74 42 45 48 108 148 179 185 217 220 0 
-75 11 40 46 54 67 79 83 91 118 129 137 143 144 156 190 208 216 229 -222 -234 -235 -238 -241 -244 -256 -257 -258 -259 -260 -261 -262 -265 -269 0 
-4 27 231 -222 -229 -234 -235 -238 -241 -244 -256 -257 -258 -259 -260 -261 -262 -265 -269 0 
-76 3 5 6 30 93 127 232 0 
-4 27 -76 3 5 6 30 93 127 233 -222 -229 -234 -235 -238 -241 -244 -256 -257 -258 -259 -260 -261 -262 -265 -269 0 
-25 94 99 110 142 -77 163 223 -222 -229 -234 -235 -238 -241 -244 -256 -257 -258 -259 -260 -261 -262 -265 -269 0 
-78 13 23 53 62 81 96 112 115 130 134 150 153 154 155 184 206 212 218 -222 -229 -234 -235 -238 -241 -244 -256 -257 -258 -259 -260 -261 -262 -265 -269 0 
-79 11 40 46 54 67 75 83 91 118 129 137 143 144 156 190 208 216 234 -222 -229 -235 -238 -241 -244 -256 -257 -258 -259 -260 -261 -262 -265 -269 0 
-80 218 -222 -229 -234 -235 -238 -241 -244 -256 -257 -258 -259 -260 -261 -262 -265 -269 0 
-81 13 23 53 62 78 96 112 115 130 134 150 153 154 155 184 206 212 -82 235 -222 -229 -234 -238 -241 -244 -256 -257 -258 -259 -260 -261 -262 -265 -269 0 
-83 11 40 46 54 67 75 79 91 118 129 137 143 144 156 190 208 216 235 -222 -229 -234 -238 -241 -244 -256 -257 -258 -259 -260 -261 -262 -265 -269 0 
-84 73 97 114 183 191 236 -222 -229 -234 -235 -238 -241 -244 -256 -257 -258 -259 -260 -261 -262 -265 -269 0 
-85 220 0 
-86 36 89 135 177 234 -222 -229 -235 -238 -241 -244 -256 -257 -258 -259 -260 -261 -262 -265 -269 0 
-59 -87 12 43 47 64 105 141 151 152 158 182 -88 8 10 21 38 39 51 61 68 100 109 111 193 210 213 218 -222 -229 -234 -235 -238 -241 -244 -256 -257 -258 -259 -260 -261 -262 -265 -269 0 
-4 27 -87 12 43 47 64 105 141 151 152 158 182 220 0 
-89 36 86 135 177 237 -222 -229 -234 -235 -238 -241 -244 -256 -257 -258 -259 -260 -261 -262 -265 -269 0 
-90 -91 11 40 46 54 67 75 79 83 118 129 137 143 144 156 190 208 216 223 -222 -229 -234 -235 -238 -241 -244 -256 -257 -258 -259 -260 -261 -262 -265 -269 0 
-92 238 -222 -229 -234 -235 -241 -244 -256 -257 -258 -259 -260 -261 -262 -265 -269 0 
-93 3 5 6 30 76 127 -25 94 99 110 142 223 -222 -229 -234 -235 -238 -241 -244 -256 -257 -258 -259 -260 -261 -262 -265 -269 0 
-94 25 99 110 142 225 -222 -229 -234 -235 -238 -241 -244 -256 -257 -258 -259 -260 -261 -262 -265 -269 0 
-95 19 168 176 189 228 -222 -229 -234 -235 -238 -241 -244 -256 -257 -258 -259 -260 -261 -262 -265 -269 0 
-96 13 23 53 62 78 81 112 115 130 134 150 153 154 155 184 206 212 229 -222 -234 -235 -238 -241 -244 -256 -257 -258 -259 -260 -261 -262 -265 -269 0 
-97 73 84 114 183 191 236 -222 -229 -234 -235 -238 -241 -244 -256 -257 -258 -259 -260 -261 -262 -265 -269 0 
-65 139 -49 56 -48 42 45 74 108 148 179 185 217 218 -222 -229 -234 -235 -238 -241 -244 -256 -257 -258 -259 -260 -261 -262 -265 -269 0 
-98 188 224 -222 -229 -234 -235 -238 -241 -244 -256 -257 -258 -259 -260 -261 -262 -265 -269 0 
-43 12 47 64 87 105 141 151 152 158 182 218 -222 -229 -234 -235 -238 -241 -244 -256 -257 -258 -259 -260 -261 -262 -265 -269 0 
-94 25 99 110 142 239 -222 -229 -234 -235 -238 -241 -244 -256 -257 -258 -259 -260 -261 -262 -265 -269 0 
-55 106 175 186 -99 25 94 110 142 220 0 
-100 8 10 21 38 39 51 61 68 88 109 111 193 210 213 218 -222 -229 -234 -235 -238 -241 -244 -256 -257 -258 -259 -260 -261 -262 -265 -269 0 
-101 14 162 218 -222 -229 -234 -235 -238 -241 -244 -256 -257 -258 -259 -260 -261 -262 -265 -269 0 
-65 139 -102 35 218 -222 -229 -234 -235 -238 -241 -244 -256 -257 -258 -259 -260 -261 -262 -265 -269 0 
-103 -4 27 220 0 
-103 -61 8 10 21 38 39 51 68 88 100 109 111 193 210 213 -104 218 -222 -229 -234 -235 -238 -241 -244 -256 -257 -258 -259 -260 -261 -262 -265 -269 0 
-105 12 43 47 64 87 141 151 152 158 182 220 0 
-56 49 220 0 
-102 35 220 0 
-106 55 175 186 224 -222 -229 -234 -235 -238 -241 -244 -256 -257 -258 -259 -260 -261 -262 -265 -269 0 
-107 120 124 240 -222 -229 -234 -235 -238 -241 -244 -256 -257 -258 -259 -260 -261 -262 -265 -269 0 
-104 220 0 
-43 12 47 64 87 105 141 151 152 158 182 -108 42 45 48 74 148 179 185 217 241 -222 -229 -234 -235 -238 -244 -256 -257 -258 -259 -260 -261 -262 -265 -269 0 
-106 55 175 186 240 -222 -229 -234 -235 -238 -241 -244 -256 -257 -258 -259 -260 -261 -262 -265 -269 0 
-94 25 99 110 142 227 -222 -229 -234 -235 -238 -241 -244 -256 -257 -258 -259 -260 -261 -262 -265 -269 0 
-23 13 53 62 78 81 96 112 115 130 134 150 153 154 155 184 206 212 -109 8 10 21 38 39 51 61 68 88 100 111 193 210 213 242 -222 -229 -234 -235 -238 -241 -244 -256 -257 -258 -259 -260 -261 -262 -265 -269 0 
-40 11 46 54 67 75 79 83 91 118 129 137 143 144 156 190 208 216 -23 13 53 62 78 81 96 112 115 130 134 150 153 154 155 184 206 212 -110 25 94 99 142 -111 8 10 21 38 39 51 61 68 88 100 109 193 210 213 242 -222 -229 -234 -235 -238 -241 -244 -256 -257 -258 -259 -260 -261 -262 -265 -269 0 
-112 13 23 53 62 78 81 96 115 130 134 150 153 154 155 184 206 212 -94 25 99 110 142 -113 131 -114 73 84 97 183 191 236 -222 -229 -234 -235 -238 -241 -244 -256 -257 -258 -259 -260 -261 -262 -265 -269 0 
-40 11 46 54 67 75 79 83 91 118 129 137 143 144 156 190 208 216 -20 164 220 0 
-115 13 23 53 62 78 81 96 112 130 134 150 153 154 155 184 206 212 -99 25 94 110 142 243 -222 -229 -234 -235 -238 -241 -244 -256 -257 -258 -259 -260 -261 -262 -265 -269 0 
-94 25 99 110 142 -87 12 43 47 64 105 141 151 152 158 182 227 -222 -229 -234 -235 -238 -241 -244 -256 -257 -258 -259 -260 -261 -262 -265 -269 0 
-107 120 124 224 -222 -229 -234 -235 -238 -241 -244 -256 -257 -258 -259 -260 -261 -262 -265 -269 0 
-4 27 -116 218 -222 -229 -234 -235 -238 -241 -244 -256 -257 -258 -259 -260 -261 -262 -265 -269 0 
-39 8 10 21 38 51 61 68 88 100 109 111 193 210 213 218 -222 -229 -234 -235 -238 -241 -244 -256 -257 -258 -259 -260 -261 -262 -265 -269 0 
-117 192 218 -222 -229 -234 -235 -238 -241 -244 -256 -257 -258 -259 -260 -261 -262 -265 -269 0 
-43 12 47 64 87 105 141 151 152 158 182 -21 8 10 38 39 51 61 68 88 100 109 111 193 210 213 218 -222 -229 -234 -235 -238 -241 -244 -256 -257 -258 -259 -260 -261 -262 -265 -269 0 
-118 11 40 46 54 67 75 79 83 91 129 137 143 144 156 190 208 216 -64 12 43 47 87 105 141 151 152 158 182 -63 -62 13 23 53 78 81 96 112 115 130 134 150 153 154 155 184 206 212 -25 94 99 110 142 228 -222 -229 -234 -235 -238 -241 -244 -256 -257 -258 -259 -260 -261 -262 -265 -269 0 
-40 11 46 54 67 75 79 83 91 118 129 137 143 144 156 190 208 216 -18 220 0 
-94 25 99 110 142 -119 239 -222 -229 -234 -235 -238 -241 -244 -256 -257 -258 -259 -260 -261 -262 -265 -269 0 
-120 107 124 240 -222 -229 -234 -235 -238 -241 -244 -256 -257 -258 -259 -260 -261 -262 -265 -269 0 
-112 13 23 53 62 78 81 96 115 130 134 150 153 154 155 184 206 212 -97 73 84 114 183 191 236 -222 -229 -234 -235 -238 -241 -244 -256 -257 -258 -259 -260 -261 -262 -265 -269 0 
-18 -55 106 175 186 -20 164 220 0 
-120 107 124 224 -222 -229 -234 -235 -238 -241 -244 -256 -257 -258 -259 -260 -261 -262 -265 -269 0 
-121 -122 244 -222 -229 -234 -235 -238 -241 -256 -257 -258 -259 -260 -261 -262 -265 -269 0 
-27 4 245 0 
-7 -24 246 0 
-4 27 247 -222 -229 -234 -235 -238 -241 -244 -256 -257 -258 -259 -260 -261 -262 -265 -269 0 
-4 27 248 -222 -229 -234 -235 -238 -241 -244 -256 -257 -258 -259 -260 -261 -262 -265 -269 0 
-7 249 -222 -229 -234 -235 -238 -241 -244 -256 -257 -258 -259 -260 -261 -262 -265 -269 0 
-7 250 -222 -229 -234 -235 -238 -241 -244 -256 -257 -258 -259 -260 -261 -262 -265 -269 0 
-7 -24 218 -222 -229 -234 -235 -238 -241 -244 -256 -257 -258 -259 -260 -261 -262 -265 -269 0 
-4 27 251 -222 -229 -234 -235 -238 -241 -244 -256 -257 -258 -259 -260 -261 -262 -265 -269 0 
-24 219 -222 -229 -234 -235 -238 -241 -244 -256 -257 -258 -259 -260 -261 -262 -265 -269 0 
-123 125 133 240 -222 -229 -234 -235 -238 -241 -244 -256 -257 -258 -259 -260 -261 -262 -265 -269 0 
-20 164 -124 107 120 240 -222 -229 -234 -235 -238 -241 -244 -256 -257 -258 -259 -260 -261 -262 -265 -269 0 
-49 56 -20 164 220 0 
-125 123 133 224 -222 -229 -234 -235 -238 -241 -244 -256 -257 -258 -259 -260 -261 -262 -265 -269 0 
-126 170 -27 4 218 -222 -229 -234 -235 -238 -241 -244 -256 -257 -258 -259 -260 -261 -262 -265 -269 0 
-27 4 219 -222 -229 -234 -235 -238 -241 -244 -256 -257 -258 -259 -260 -261 -262 -265 -269 0 
-102 35 219 -222 -229 -234 -235 -238 -241 -244 -256 -257 -258 -259 -260 -261 -262 -265 -269 0 
-127 3 5 6 30 76 93 -102 35 218 -222 -229 -234 -235 -238 -241 -244 -256 -257 -258 -259 -260 -261 -262 -265 -269 0 
-2 -3 5 6 30 76 93 127 218 -222 -229 -234 -235 -238 -241 -244 -256 -257 -258 -259 -260 -261 -262 -265 -269 0 
-128 -1 218 -222 -229 -234 -235 -238 -241 -244 -256 -257 -258 -259 -260 -261 -262 -265 -269 0 
-128 219 -222 -229 -234 -235 -238 -241 -244 -256 -257 -258 -259 -260 -261 -262 -265 -269 0 
-128 -1 219 -222 -229 -234 -235 -238 -241 -244 -256 -257 -258 -259 -260 -261 -262 -265 -269 0 
-112 13 23 53 62 78 81 96 115 130 134 150 153 154 155 184 206 212 229 -222 -234 -235 -238 -241 -244 -256 -257 -258 -259 -260 -261 -262 -265 -269 0 
-129 11 40 46 54 67 75 79 83 91 118 137 143 144 156 190 208 216 -94 25 99 110 142 252 -222 -229 -234 -235 -238 -241 -244 -256 -257 -258 -259 -260 -261 -262 -265 -269 0 
-129 11 40 46 54 67 75 79 83 91 118 137 143 144 156 190 208 216 229 -222 -234 -235 -238 -241 -244 -256 -257 -258 -259 -260 -261 -262 -265 -269 0 
-113 131 -16 -130 13 23 53 62 78 81 96 112 115 134 150 153 154 155 184 206 212 -94 25 99 110 142 236 -222 -229 -234 -235 -238 -241 -244 -256 -257 -258 -259 -260 -261 -262 -265 -269 0 
-129 11 40 46 54 67 75 79 83 91 118 137 143 144 156 190 208 216 -94 25 99 110 142 -131 113 252 -222 -229 -234 -235 -238 -241 -244 -256 -257 -258 -259 -260 -261 -262 -265 -269 0 
-132 236 -222 -229 -234 -235 -238 -241 -244 -256 -257 -258 -259 -260 -261 -262 -265 -269 0 
-20 164 253 -222 -229 -234 -235 -238 -241 -244 -256 -257 -258 -259 -260 -261 -262 -265 -269 0 
-104 -110 25 94 99 142 218 -222 -229 -234 -235 -238 -241 -244 -256 -257 -258 -259 -260 -261 -262 -265 -269 0 
-18 -14 101 162 -10 8 21 38 39 51 61 68 88 100 109 111 193 210 213 218 -222 -229 -234 -235 -238 -241 -244 -256 -257 -258 -259 -260 -261 -262 -265 -269 0 
-18 -21 8 10 38 39 51 61 68 88 100 109 111 193 210 213 -85 218 -222 -229 -234 -235 -238 -241 -244 -256 -257 -258 -259 -260 -261 -262 -265 -269 0 
-133 123 125 224 -222 -229 -234 -235 -238 -241 -244 -256 -257 -258 -259 -260 -261 -262 -265 -269 0 
-94 25 99 110 142 -41 -20 164 -21 8 10 38 39 51 61 68 88 100 109 111 193 210 213 -134 13 23 53 62 78 81 96 112 115 130 150 153 154 155 184 206 212 254 -222 -229 -234 -235 -238 -241 -244 -256 -257 -258 -259 -260 -261 -262 -265 -269 0 
-135 36 86 89 177 218 -222 -229 -234 -235 -238 -241 -244 -256 -257 -258 -259 -260 -261 -262 -265 -269 0 
-109 8 10 21 38 39 51 61 68 88 100 111 193 210 213 242 -222 -229 -234 -235 -238 -241 -244 -256 -257 -258 -259 -260 -261 -262 -265 -269 0 
-116 218 -222 -229 -234 -235 -238 -241 -244 -256 -257 -258 -259 -260 -261 -262 -265 -269 0 
-18 -44 -136 218 -222 -229 -234 -235 -238 -241 -244 -256 -257 -258 -259 -260 -261 -262 -265 -269 0 
-20 164 -35 102 -137 11 40 46 54 67 75 79 83 91 118 129 143 144 156 190 208 216 218 -222 -229 -234 -235 -238 -241 -244 -256 -257 -258 -259 -260 -261 -262 -265 -269 0 
-138 -35 102 218 -222 -229 -234 -235 -238 -241 -244 -256 -257 -258 -259 -260 -261 -262 -265 -269 0 
-138 218 -222 -229 -234 -235 -238 -241 -244 -256 -257 -258 -259 -260 -261 -262 -265 -269 0 
-20 164 220 0 
-44 -138 218 -222 -229 -234 -235 -238 -241 -244 -256 -257 -258 -259 -260 -261 -262 -265 -269 0 
-94 25 99 110 142 218 -222 -229 -234 -235 -238 -241 -244 -256 -257 -258 -259 -260 -261 -262 -265 -269 0 
-139 65 255 -222 -229 -234 -235 -238 -241 -244 -256 -257 -258 -259 -260 -261 -262 -265 -269 0 
-139 65 218 -222 -229 -234 -235 -238 -241 -244 -256 -257 -258 -259 -260 -261 -262 -265 -269 0 
-18 -140 220 0 
-141 12 43 47 64 87 105 151 152 158 182 -56 49 220 0 
-21 8 10 38 39 51 61 68 88 100 109 111 193 210 213 253 -222 -229 -234 -235 -238 -241 -244 -256 -257 -258 -259 -260 -261 -262 -265 -269 0 
-104 -102 35 -48 42 45 74 108 148 179 185 217 218 -222 -229 -234 -235 -238 -241 -244 -256 -257 -258 -259 -260 -261 -262 -265 -269 0 
-104 253 -222 -229 -234 -235 -238 -241 -244 -256 -257 -258 -259 -260 -261 -262 -265 -269 0 
-9 149 -142 25 94 99 110 220 0 
-49 56 253 -222 -229 -234 -235 -238 -241 -244 -256 -257 -258 -259 -260 -261 -262 -265 -269 0 
-40 11 46 54 67 75 79 83 91 118 129 137 143 144 156 190 208 216 218 -222 -229 -234 -235 -238 -241 -244 -256 -257 -258 -259 -260 -261 -262 -265 -269 0 
-94 25 99 110 142 218 -222 -229 -234 -235 -238 -241 -244 -256 -257 -258 -259 -260 -261 -262 -265 -269 0 
-143 11 40 46 54 67 75 79 83 91 118 129 137 144 156 190 208 216 229 -222 -234 -235 -238 -241 -244 -256 -257 -258 -259 -260 -261 -262 -265 -269 0 
-18 -43 12 47 64 87 105 141 151 152 158 182 -48 42 45 74 108 148 179 185 217 218 -222 -229 -234 -235 -238 -241 -244 -256 -257 -258 -259 -260 -261 -262 -265 -269 0 
-144 11 40 46 54 67 75 79 83 91 118 129 137 143 156 190 208 216 -49 56 -21 8 10 38 39 51 61 68 88 100 109 111 193 210 213 218 -222 -229 -234 -235 -238 -241 -244 -256 -257 -258 -259 -260 -261 -262 -265 -269 0 
-47 12 43 64 87 105 141 151 152 158 182 -21 8 10 38 39 51 61 68 88 100 109 111 193 210 213 220 0 
-145 -94 25 99 110 142 218 -222 -229 -234 -235 -238 -241 -244 -256 -257 -258 -259 -260 -261 -262 -265 -269 0 
-146 -94 25 99 110 142 218 -222 -229 -234 -235 -238 -241 -244 -256 -257 -258 -259 -260 -261 -262 -265 -269 0 
-147 256 -222 -229 -234 -235 -238 -241 -244 -257 -258 -259 -260 -261 -262 -265 -269 0 
-68 8 10 21 38 39 51 61 88 100 109 111 193 210 213 229 -222 -234 -235 -238 -241 -244 -256 -257 -258 -259 -260 -261 -262 -265 -269 0 
-108 42 45 48 74 148 179 185 217 229 -222 -234 -235 -238 -241 -244 -256 -257 -258 -259 -260 -261 -262 -265 -269 0 
-18 -148 42 45 48 74 108 179 185 217 257 -222 -229 -234 -235 -238 -241 -244 -256 -258 -259 -260 -261 -262 -265 -269 0 
-149 9 218 -222 -229 -234 -235 -238 -241 -244 -256 -257 -258 -259 -260 -261 -262 -265 -269 0 
-150 13 23 53 62 78 81 96 112 115 130 134 153 154 155 184 206 212 -113 131 257 -222 -229 -234 -235 -238 -241 -244 -256 -258 -259 -260 -261 -262 -265 -269 0 
-68 8 10 21 38 39 51 61 88 100 109 111 193 210 213 -151 12 43 47 64 87 105 141 152 158 182 218 -222 -229 -234 -235 -238 -241 -244 -256 -257 -258 -259 -260 -261 -262 -265 -269 0 
-152 12 43 47 64 87 105 141 151 158 182 258 -222 -229 -234 -235 -238 -241 -244 -256 -257 -259 -260 -261 -262 -265 -269 0 
-153 13 23 53 62 78 81 96 112 115 130 134 150 154 155 184 206 212 229 -222 -234 -235 -238 -241 -244 -256 -257 -258 -259 -260 -261 -262 -265 -269 0 
-154 13 23 53 62 78 81 96 112 115 130 134 150 153 155 184 206 212 259 -222 -229 -234 -235 -238 -241 -244 -256 -257 -258 -260 -261 -262 -265 -269 0 
-155 13 23 53 62 78 81 96 112 115 130 134 150 153 154 184 206 212 234 -222 -229 -235 -238 -241 -244 -256 -257 -258 -259 -260 -261 -262 -265 -269 0 
-156 11 40 46 54 67 75 79 83 91 118 129 137 143 144 190 208 216 -157 257 -222 -229 -234 -235 -238 -241 -244 -256 -258 -259 -260 -261 -262 -265 -269 0 
-158 12 43 47 64 87 105 141 151 152 182 260 -222 -229 -234 -235 -238 -241 -244 -256 -257 -258 -259 -261 -262 -265 -269 0 
-159 160 161 261 -222 -229 -234 -235 -238 -241 -244 -256 -257 -258 -259 -260 -262 -265 -269 0 
-160 159 161 262 -222 -229 -234 -235 -238 -241 -244 -256 -257 -258 -259 -260 -261 -265 -269 0 
-161 159 160 261 -222 -229 -234 -235 -238 -241 -244 -256 -257 -258 -259 -260 -262 -265 -269 0 
-162 14 101 218 -222 -229 -234 -235 -238 -241 -244 -256 -257 -258 -259 -260 -261 -262 -265 -269 0 
-163 77 218 -222 -229 -234 -235 -238 -241 -244 -256 -257 -258 -259 -260 -261 -262 -265 -269 0 
-128 218 -222 -229 -234 -235 -238 -241 -244 -256 -257 -258 -259 -260 -261 -262 -265 -269 0 
-164 20 219 -222 -229 -234 -235 -238 -241 -244 -256 -257 -258 -259 -260 -261 -262 -265 -269 0 
-164 20 -165 263 0 
-31 167 264 0 
-121 -166 -31 167 244 -222 -229 -234 -235 -238 -241 -256 -257 -258 -259 -260 -261 -262 -265 -269 0 
-31 167 229 -222 -234 -235 -238 -241 -244 -256 -257 -258 -259 -260 -261 -262 -265 -269 0 
-167 31 -31 167 265 -222 -229 -234 -235 -238 -241 -244 -256 -257 -258 -259 -260 -261 -262 -269 0 
-104 -168 19 95 176 189 222 -229 -234 -235 -238 -241 -244 -256 -257 -258 -259 -260 -261 -262 -265 -269 0 
-28 219 -222 -229 -234 -235 -238 -241 -244 -256 -257 -258 -259 -260 -261 -262 -265 -269 0 
-7 -27 4 218 -222 -229 -234 -235 -238 -241 -244 -256 -257 -258 -259 -260 -261 -262 -265 -269 0 
-128 -169 218 -222 -229 -234 -235 -238 -241 -244 -256 -257 -258 -259 -260 -261 -262 -265 -269 0 
-4 27 -76 3 5 6 30 93 127 218 -222 -229 -234 -235 -238 -241 -244 -256 -257 -258 -259 -260 -261 -262 -265 -269 0 
-4 27 -5 3 6 30 76 93 127 218 -222 -229 -234 -235 -238 -241 -244 -256 -257 -258 -259 -260 -261 -262 -265 -269 0 
-29 -169 218 -222 -229 -234 -235 -238 -241 -244 -256 -257 -258 -259 -260 -261 -262 -265 -269 0 
-2 -93 3 5 6 30 76 127 -1 218 -222 -229 -234 -235 -238 -241 -244 -256 -257 -258 -259 -260 -261 -262 -265 -269 0 
-27 4 -1 219 -222 -229 -234 -235 -238 -241 -244 -256 -257 -258 -259 -260 -261 -262 -265 -269 0 
-29 219 -222 -229 -234 -235 -238 -241 -244 -256 -257 -258 -259 -260 -261 -262 -265 -269 0 
-5 3 6 30 76 93 127 219 -222 -229 -234 -235 -238 -241 -244 -256 -257 -258 -259 -260 -261 -262 -265 -269 0 
-93 3 5 6 30 76 127 -1 219 -222 -229 -234 -235 -238 -241 -244 -256 -257 -258 -259 -260 -261 -262 -265 -269 0 
-7 -27 4 -1 218 -222 -229 -234 -235 -238 -241 -244 -256 -257 -258 -259 -260 -261 -262 -265 -269 0 
-76 3 5 6 30 93 127 219 -222 -229 -234 -235 -238 -241 -244 -256 -257 -258 -259 -260 -261 -262 -265 -269 0 
-4 27 -6 3 5 30 76 93 127 218 -222 -229 -234 -235 -238 -241 -244 -256 -257 -258 -259 -260 -261 -262 -265 -269 0 
-7 -3 5 6 30 76 93 127 218 -222 -229 -234 -235 -238 -241 -244 -256 -257 -258 -259 -260 -261 -262 -265 -269 0 
-7 -31 167 219 -222 -229 -234 -235 -238 -241 -244 -256 -257 -258 -259 -260 -261 -262 -265 -269 0 
-18 -20 164 -31 167 218 -222 -229 -234 -235 -238 -241 -244 -256 -257 -258 -259 -260 -261 -262 -265 -269 0 
-7 -5 3 6 30 76 93 127 218 -222 -229 -234 -235 -238 -241 -244 -256 -257 -258 -259 -260 -261 -262 -265 -269 0 
-121 -31 167 244 -222 -229 -234 -235 -238 -241 -256 -257 -258 -259 -260 -261 -262 -265 -269 0 
-7 -3 5 6 30 76 93 127 219 -222 -229 -234 -235 -238 -241 -244 -256 -257 -258 -259 -260 -261 -262 -265 -269 0 
-2 -5 3 6 30 76 93 127 219 -222 -229 -234 -235 -238 -241 -244 -256 -257 -258 -259 -260 -261 -262 -265 -269 0 
-170 126 -1 218 -222 -229 -234 -235 -238 -241 -244 -256 -257 -258 -259 -260 -261 -262 -265 -269 0 
-21 8 10 38 39 51 61 68 88 100 109 111 193 210 213 -171 220 0 
-49 56 -104 220 0 
-23 13 53 62 78 81 96 112 115 130 134 150 153 154 155 184 206 212 -21 8 10 38 39 51 61 68 88 100 109 111 193 210 213 218 -222 -229 -234 -235 -238 -241 -244 -256 -257 -258 -259 -260 -261 -262 -265 -269 0 
-172 -73 84 97 114 183 191 225 -222 -229 -234 -235 -238 -241 -244 -256 -257 -258 -259 -260 -261 -262 -265 -269 0 
-173 229 -222 -234 -235 -238 -241 -244 -256 -257 -258 -259 -260 -261 -262 -265 -269 0 
-174 199 203 204 205 222 -229 -234 -235 -238 -241 -244 -256 -257 -258 -259 -260 -261 -262 -265 -269 0 
-175 55 106 186 218 -222 -229 -234 -235 -238 -241 -244 -256 -257 -258 -259 -260 -261 -262 -265 -269 0 
-16 218 -222 -229 -234 -235 -238 -241 -244 -256 -257 -258 -259 -260 -261 -262 -265 -269 0 
-176 19 95 168 189 222 -229 -234 -235 -238 -241 -244 -256 -257 -258 -259 -260 -261 -262 -265 -269 0 
-16 222 -229 -234 -235 -238 -241 -244 -256 -257 -258 -259 -260 -261 -262 -265 -269 0 
-177 36 86 89 135 222 -229 -234 -235 -238 -241 -244 -256 -257 -258 -259 -260 -261 -262 -265 -269 0 
-178 218 -222 -229 -234 -235 -238 -241 -244 -256 -257 -258 -259 -260 -261 -262 -265 -269 0 
-179 42 45 48 74 108 148 185 217 222 -229 -234 -235 -238 -241 -244 -256 -257 -258 -259 -260 -261 -262 -265 -269 0 
-168 19 95 176 189 222 -229 -234 -235 -238 -241 -244 -256 -257 -258 -259 -260 -261 -262 -265 -269 0 
-136 218 -222 -229 -234 -235 -238 -241 -244 -256 -257 -258 -259 -260 -261 -262 -265 -269 0 
-112 13 23 53 62 78 81 96 115 130 134 150 153 154 155 184 206 212 218 -222 -229 -234 -235 -238 -241 -244 -256 -257 -258 -259 -260 -261 -262 -265 -269 0 
-180 229 -222 -234 -235 -238 -241 -244 -256 -257 -258 -259 -260 -261 -262 -265 -269 0 
-181 257 -222 -229 -234 -235 -238 -241 -244 -256 -258 -259 -260 -261 -262 -265 -269 0 
-150 13 23 53 62 78 81 96 112 115 130 134 153 154 155 184 206 212 -182 12 43 47 64 87 105 141 151 152 158 257 -222 -229 -234 -235 -238 -241 -244 -256 -258 -259 -260 -261 -262 -265 -269 0 
-183 73 84 97 114 191 236 -222 -229 -234 -235 -238 -241 -244 -256 -257 -258 -259 -260 -261 -262 -265 -269 0 
-184 13 23 53 62 78 81 96 112 115 130 134 150 153 154 155 206 212 257 -222 -229 -234 -235 -238 -241 -244 -256 -258 -259 -260 -261 -262 -265 -269 0 
-85 218 -222 -229 -234 -235 -238 -241 -244 -256 -257 -258 -259 -260 -261 -262 -265 -269 0 
-20 164 -56 49 -104 218 -222 -229 -234 -235 -238 -241 -244 -256 -257 -258 -259 -260 -261 -262 -265 -269 0 
-185 42 45 48 74 108 148 179 217 -35 102 -99 25 94 110 142 -15 197 218 -222 -229 -234 -235 -238 -241 -244 -256 -257 -258 -259 -260 -261 -262 -265 -269 0 
-186 55 106 175 223 -222 -229 -234 -235 -238 -241 -244 -256 -257 -258 -259 -260 -261 -262 -265 -269 0 
-131 113 -97 73 84 114 183 191 236 -222 -229 -234 -235 -238 -241 -244 -256 -257 -258 -259 -260 -261 -262 -265 -269 0 
-4 27 -43 12 47 64 87 105 141 151 152 158 182 -48 42 45 74 108 148 179 185 217 218 -222 -229 -234 -235 -238 -241 -244 -256 -257 -258 -259 -260 -261 -262 -265 -269 0 
-107 120 124 -21 8 10 38 39 51 61 68 88 100 109 111 193 210 213 224 -222 -229 -234 -235 -238 -241 -244 -256 -257 -258 -259 -260 -261 -262 -265 -269 0 
-107 120 124 -106 55 175 186 240 -222 -229 -234 -235 -238 -241 -244 -256 -257 -258 -259 -260 -261 -262 -265 -269 0 
-55 106 175 186 -21 8 10 38 39 51 61 68 88 100 109 111 193 210 213 220 0 
-4 27 -65 139 -187 218 -222 -229 -234 -235 -238 -241 -244 -256 -257 -258 -259 -260 -261 -262 -265 -269 0 
-144 11 40 46 54 67 75 79 83 91 118 129 137 143 156 190 208 216 -102 35 -21 8 10 38 39 51 61 68 88 100 109 111 193 210 213 218 -222 -229 -234 -235 -238 -241 -244 -256 -257 -258 -259 -260 -261 -262 -265 -269 0 
-97 73 84 114 183 191 -129 11 40 46 54 67 75 79 83 91 118 137 143 144 156 190 208 216 236 -222 -229 -234 -235 -238 -241 -244 -256 -257 -258 -259 -260 -261 -262 -265 -269 0 
-188 98 224 -222 -229 -234 -235 -238 -241 -244 -256 -257 -258 -259 -260 -261 -262 -265 -269 0 
-23 13 53 62 78 81 96 112 115 130 134 150 153 154 155 184 206 212 218 -222 -229 -234 -235 -238 -241 -244 -256 -257 -258 -259 -260 -261 -262 -265 -269 0 
-65 139 -102 35 -51 8 10 21 38 39 61 68 88 100 109 111 193 210 213 218 -222 -229 -234 -235 -238 -241 -244 -256 -257 -258 -259 -260 -261 -262 -265 -269 0 
-104 -21 8 10 38 39 51 61 68 88 100 109 111 193 210 213 218 -222 -229 -234 -235 -238 -241 -244 -256 -257 -258 -259 -260 -261 -262 -265 -269 0 
-49 56 -21 8 10 38 39 51 61 68 88 100 109 111 193 210 213 218 -222 -229 -234 -235 -238 -241 -244 -256 -257 -258 -259 -260 -261 -262 -265 -269 0 
-20 164 -50 220 0 
-189 19 95 168 176 -190 11 40 46 54 67 75 79 83 91 118 129 137 143 144 156 208 216 229 -222 -234 -235 -238 -241 -244 -256 -257 -258 -259 -260 -261 -262 -265 -269 0 
-191 73 84 97 114 183 236 -222 -229 -234 -235 -238 -241 -244 -256 -257 -258 -259 -260 -261 -262 -265 -269 0 
-18 220 0 
-65 139 220 0 
-192 117 -193 8 10 21 38 39 51 61 68 88 100 109 111 210 213 242 -222 -229 -234 -235 -238 -241 -244 -256 -257 -258 -259 -260 -261 -262 -265 -269 0 
-194 235 -222 -229 -234 -238 -241 -244 -256 -257 -258 -259 -260 -261 -262 -265 -269 0 
-127 3 5 6 30 76 93 -27 4 219 -222 -229 -234 -235 -238 -241 -244 -256 -257 -258 -259 -260 -261 -262 -265 -269 0 
-128 -195 219 -222 -229 -234 -235 -238 -241 -244 -256 -257 -258 -259 -260 -261 -262 -265 -269 0 
-1 -29 219 -222 -229 -234 -235 -238 -241 -244 -256 -257 -258 -259 -260 -261 -262 -265 -269 0 
-196 218 -222 -229 -234 -235 -238 -241 -244 -256 -257 -258 -259 -260 -261 -262 -265 -269 0 
-197 15 218 -222 -229 -234 -235 -238 -241 -244 -256 -257 -258 -259 -260 -261 -262 -265 -269 0 
-99 25 94 110 142 -14 101 162 220 0 
-198 -58 -199 174 203 204 205 218 -222 -229 -234 -235 -238 -241 -244 -256 -257 -258 -259 -260 -261 -262 -265 -269 0 
-198 -200 -201 218 -222 -229 -234 -235 -238 -241 -244 -256 -257 -258 -259 -260 -261 -262 -265 -269 0 
-7 -18 -31 167 218 -222 -229 -234 -235 -238 -241 -244 -256 -257 -258 -259 -260 -261 -262 -265 -269 0 
-24 -6 3 5 30 76 93 127 218 -222 -229 -234 -235 -238 -241 -244 -256 -257 -258 -259 -260 -261 -262 -265 -269 0 
-4 27 -202 266 -222 -229 -234 -235 -238 -241 -244 -256 -257 -258 -259 -260 -261 -262 -265 -269 0 
-1 -102 35 219 -222 -229 -234 -235 -238 -241 -244 -256 -257 -258 -259 -260 -261 -262 -265 -269 0 
-6 3 5 30 76 93 127 218 -222 -229 -234 -235 -238 -241 -244 -256 -257 -258 -259 -260 -261 -262 -265 -269 0 
-35 102 -6 3 5 30 76 93 127 219 -222 -229 -234 -235 -238 -241 -244 -256 -257 -258 -259 -260 -261 -262 -265 -269 0 
-203 174 199 204 205 218 -222 -229 -234 -235 -238 -241 -244 -256 -257 -258 -259 -260 -261 -262 -265 -269 0 
-204 174 199 203 205 229 -222 -234 -235 -238 -241 -244 -256 -257 -258 -259 -260 -261 -262 -265 -269 0 
-68 8 10 21 38 39 51 61 88 100 109 111 193 210 213 -25 94 99 110 142 223 -222 -229 -234 -235 -238 -241 -244 -256 -257 -258 -259 -260 -261 -262 -265 -269 0 
-25 94 99 110 142 -205 174 199 203 204 223 -222 -229 -234 -235 -238 -241 -244 -256 -257 -258 -259 -260 -261 -262 -265 -269 0 
-206 13 23 53 62 78 81 96 112 115 130 134 150 153 154 155 184 212 218 -222 -229 -234 -235 -238 -241 -244 -256 -257 -258 -259 -260 -261 -262 -265 -269 0 
-18 -151 12 43 47 64 87 105 141 152 158 182 229 -222 -234 -235 -238 -241 -244 -256 -257 -258 -259 -260 -261 -262 -265 -269 0 
-56 49 218 -222 -229 -234 -235 -238 -241 -244 -256 -257 -258 -259 -260 -261 -262 -265 -269 0 
-4 27 220 0 
-56 49 218 -222 -229 -234 -235 -238 -241 -244 -256 -257 -258 -259 -260 -261 -262 -265 -269 0 
-207 -139 65 267 0 
-94 25 99 110 142 -134 13 23 53 62 78 81 96 112 115 130 150 153 154 155 184 206 212 -47 12 43 64 87 105 141 151 152 158 182 -16 -208 11 40 46 54 67 75 79 83 91 118 129 137 143 144 156 190 216 254 -222 -229 -234 -235 -238 -241 -244 -256 -257 -258 -259 -260 -261 -262 -265 -269 0 
-65 139 -104 -187 218 -222 -229 -234 -235 -238 -241 -244 -256 -257 -258 -259 -260 -261 -262 -265 -269 0 
-51 8 10 21 38 39 61 68 88 100 109 111 193 210 213 -14 101 162 218 -222 -229 -234 -235 -238 -241 -244 -256 -257 -258 -259 -260 -261 -262 -265 -269 0 
-51 8 10 21 38 39 61 68 88 100 109 111 193 210 213 -135 36 86 89 177 218 -222 -229 -234 -235 -238 -241 -244 -256 -257 -258 -259 -260 -261 -262 -265 -269 0 
-209 239 -222 -229 -234 -235 -238 -241 -244 -256 -257 -258 -259 -260 -261 -262 -265 -269 0 
-23 13 53 62 78 81 96 112 115 130 134 150 153 154 155 184 206 212 -192 117 -210 8 10 21 38 39 51 61 68 88 100 109 111 193 213 242 -222 -229 -234 -235 -238 -241 -244 -256 -257 -258 -259 -260 -261 -262 -265 -269 0 
-46 11 40 54 67 75 79 83 91 118 129 137 143 144 156 190 208 216 -99 25 94 110 142 220 0 
-18 -211 268 -222 -229 -234 -235 -238 -241 -244 -256 -257 -258 -259 -260 -261 -262 -265 -269 0 
-18 -212 13 23 53 62 78 81 96 112 115 130 134 150 153 154 155 184 206 -209 239 -222 -229 -234 -235 -238 -241 -244 -256 -257 -258 -259 -260 -261 -262 -265 -269 0 
-213 8 10 21 38 39 51 61 68 88 100 109 111 193 210 242 -222 -229 -234 -235 -238 -241 -244 -256 -257 -258 -259 -260 -261 -262 -265 -269 0 
-20 164 -63 218 -222 -229 -234 -235 -238 -241 -244 -256 -257 -258 -259 -260 -261 -262 -265 -269 0 
-214 -142 25 94 99 110 218 -222 -229 -234 -235 -238 -241 -244 -256 -257 -258 -259 -260 -261 -262 -265 -269 0 
-215 218 -222 -229 -234 -235 -238 -241 -244 -256 -257 -258 -259 -260 -261 -262 -265 -269 0 
-214 -104 218 -222 -229 -234 -235 -238 -241 -244 -256 -257 -258 -259 -260 -261 -262 -265 -269 0 
-216 11 40 46 54 67 75 79 83 91 118 129 137 143 144 156 190 208 220 0 
-118 11 40 46 54 67 75 79 83 91 129 137 143 144 156 190 208 216 218 -222 -229 -234 -235 -238 -241 -244 -256 -257 -258 -259 -260 -261 -262 -265 -269 0 
-214 -104 218 -222 -229 -234 -235 -238 -241 -244 -256 -257 -258 -259 -260 -261 -262 -265 -269 0 
-115 13 23 53 62 78 81 96 112 130 134 150 153 154 155 184 206 212 220 0 
-152 12 43 47 64 87 105 141 151 158 182 -217 42 45 48 74 108 148 179 185 269 -222 -229 -234 -235 -238 -241 -244 -256 -257 -258 -259 -260 -261 -262 -265 0 
-127 3 5 6 30 76 93 -27 4 218 -222 -229 -234 -235 -238 -241 -244 -256 -257 -258 -259 -260 -261 -262 -265 -269 0 
-24 -76 3 5 6 30 93 127 218 -222 -229 -234 -235 -238 -241 -244 -256 -257 -258 -259 -260 -261 -262 -265 -269 0 
-24 -93 3 5 6 30 76 127 218 -222 -229 -234 -235 -238 -241 -244 -256 -257 -258 -259 -260 -261 -262 -265 -269 0 
-2 -27 4 218 -222 -229 -234 -235 -238 -241 -244 -256 -257 -258 -259 -260 -261 -262 -265 -269 0 
-4 27 -3 5 6 30 76 93 127 218 -222 -229 -234 -235 -238 -241 -244 -256 -257 -258 -259 -260 -261 -262 -265 -269 0 
-7 -6 3 5 30 76 93 127 218 -222 -229 -234 -235 -238 -241 -244 -256 -257 -258 -259 -260 -261 -262 -265 -269 0 
-3 5 6 30 76 93 127 218 -222 -229 -234 -235 -238 -241 -244 -256 -257 -258 -259 -260 -261 -262 -265 -269 0 
-93 3 5 6 30 76 127 219 -222 -229 -234 -235 -238 -241 -244 -256 -257 -258 -259 -260 -261 -262 -265 -269 0 
-93 3 5 6 30 76 127 218 -222 -229 -234 -235 -238 -241 -244 -256 -257 -258 -259 -260 -261 -262 -265 -269 0 
-76 3 5 6 30 93 127 218 -222 -229 -234 -235 -238 -241 -244 -256 -257 -258 -259 -260 -261 -262 -265 -269 0 
-1 -31 167 219 -222 -229 -234 -235 -238 -241 -244 -256 -257 -258 -259 -260 -261 -262 -265 -269 0 
-7 -1 -31 167 218 -222 -229 -234 -235 -238 -241 -244 -256 -257 -258 -259 -260 -261 -262 -265 -269 0 
-3 5 6 30 76 93 127 -165 263 0 
-20 164 -3 5 6 30 76 93 127 218 -222 -229 -234 -235 -238 -241 -244 -256 -257 -258 -259 -260 -261 -262 -265 -269 0 
-18 -93 3 5 6 30 76 127 218 -222 -229 -234 -235 -238 -241 -244 -256 -257 -258 -259 -260 -261 -262 -265 -269 0 
-24 -27 4 218 -222 -229 -234 -235 -238 -241 -244 -256 -257 -258 -259 -260 -261 -262 -265 -269 0 
-5 3 6 30 76 93 127 218 -222 -229 -234 -235 -238 -241 -244 -256 -257 -258 -259 -260 -261 -262 -265 -269 0 
